# Solution for model problem_
# Objective value = 5.1770348651333443e+04
x(0_0) 0
x(0_1) 0
x(0_2) 0
x(0_3) 0
x(0_4) 0
x(0_5) 0
x(0_6) 0
x(0_7) 0
x(0_8) 0
x(0_9) 1
x(1_10) 0
x(1_11) 0
x(1_12) 0
x(1_13) 0
x(1_14) 0
x(1_15) 0
x(1_16) 0
x(1_17) 0
x(1_18) 0
x(1_19) 0
x(1_20) 0
x(1_21) 0
x(1_22) 1
x(1_23) 0
x(2_24) 0
x(2_25) 0
x(2_26) 1
x(2_27) 0
x(2_28) 0
x(2_29) 0
x(2_30) 0
x(2_31) 0
x(2_32) 0
x(2_33) 0
x(2_34) 0
x(2_35) 0
x(2_36) 0
x(3_37) 0
x(3_38) 0
x(3_39) 0
x(3_40) 0
x(3_41) 0
x(3_42) 0
x(3_43) 0
x(3_44) 0
x(3_45) 0
x(3_46) 0
x(3_47) 0
x(3_48) 0
x(3_49) 0
x(3_50) 0
x(3_51) 0
x(3_52) 0
x(3_53) 1
x(3_54) 0
x(3_55) 0
x(4_56) 0
x(4_57) 0
x(4_58) 0
x(4_59) 0
x(4_60) 0
x(4_61) 0
x(4_62) 0
x(4_63) 0
x(4_64) 0
x(4_65) 0
x(4_66) 0
x(4_67) 0
x(4_68) 1
x(4_69) 0
x(5_70) 0
x(5_71) 0
x(5_72) 0
x(5_73) 0
x(5_74) 0
x(5_75) 0
x(5_76) 0
x(5_77) 0
x(5_78) 0
x(5_79) 0
x(5_80) 0
x(5_81) 1
x(5_82) 0
x(5_83) 0
x(5_84) 0
x(5_85) 0
x(6_86) 0
x(6_87) 0
x(6_88) 0
x(6_89) 0
x(6_90) 0
x(6_91) 0
x(6_92) 1
x(6_93) 0
x(6_94) 0
x(6_95) 0
x(7_96) 0
x(7_97) 0
x(7_98) 0
x(7_99) 1
x(7_100) 0
x(7_101) 0
x(7_102) 0
x(7_103) 0
x(7_104) 0
x(7_105) 0
x(7_106) 0
x(7_107) 0
x(7_108) 0
x(7_109) 0
x(7_110) 0
x(7_111) 0
x(7_112) 0
x(7_113) 0
x(7_114) 0
x(8_115) 0
x(8_116) 0
x(8_117) 0
x(8_118) 0
x(8_119) 0
x(8_120) 0
x(8_121) 0
x(8_122) 0
x(8_123) 0
x(8_124) 0
x(8_125) 1
x(8_126) 0
x(8_127) 0
x(8_128) 0
x(8_129) 0
x(8_130) 0
x(8_131) 0
x(8_132) 0
x(8_133) 0
x(9_134) 0
x(9_135) 0
x(9_136) 0
x(9_137) 0
x(9_138) 0
x(9_139) 0
x(9_140) 1
x(9_141) 0
x(9_142) 0
x(9_143) 0
x(9_144) 0
x(9_145) 0
x(10_146) 0
x(10_147) 0
x(10_148) 1
x(10_149) 0
x(10_150) 0
x(10_151) 0
x(10_152) 0
x(10_153) 0
x(10_154) 0
x(10_155) 0
x(10_156) 0
x(11_157) 0
x(11_158) 0
x(11_159) 0
x(11_160) 0
x(11_161) 0
x(11_162) 0
x(11_163) 1
x(11_164) 0
x(11_165) 0
x(11_166) 0
x(11_167) 0
x(11_168) 0
x(11_169) 0
x(11_170) 0
x(12_171) 0
x(12_172) 1
x(12_173) 0
x(12_174) 0
x(12_175) 0
x(12_176) 0
x(12_177) 0
x(12_178) 0
x(12_179) 0
x(12_180) 0
x(12_181) 0
x(12_182) 0
x(12_183) 0
x(12_184) 0
x(12_185) 0
x(13_186) 0
x(13_187) 0
x(13_188) 0
x(13_189) 0
x(13_190) 0
x(13_191) 0
x(13_192) 0
x(13_193) 0
x(13_194) 0
x(13_195) 0
x(13_196) 0
x(13_197) 0
x(13_198) 0
x(13_199) 0
x(13_200) 0
x(13_201) 0
x(13_202) 0
x(13_203) 1
x_1_0 7.3236954689025879e+01
s_1_0 0
z_1_0 0
x_1_1 7.3519794940948486e+01
s_1_1 0
z_1_1 0
x_1_2 7.3710717201232910e+01
s_1_2 0
z_1_2 0
x_1_3 7.3667927980422974e+01
s_1_3 0
z_1_3 0
x_1_4 0
s_1_4 1.0012288279831409e+00
z_1_4 1
x_1_5 0
s_1_5 2.8016470780130476e-01
z_1_5 1
x_1_6 0
s_1_6 6.0133948409929872e-01
z_1_6 1
x_1_7 7.3703184843063354e+01
s_1_7 0
z_1_7 0
x_1_8 0
s_1_8 4.8366172984242439e-01
z_1_8 1
x_1_9 7.3962084531784058e+01
s_1_9 0
z_1_9 0
x_1_10 0
s_1_10 5.6726134940981865e-01
z_1_10 1
x_1_11 0
s_1_11 4.5498138151015155e-01
z_1_11 1
x_1_12 7.2726159572601318e+01
s_1_12 0
z_1_12 0
x_1_13 0
s_1_13 7.3555426578968763e-01
z_1_13 1
x_1_14 7.3444059610366821e+01
s_1_14 0
z_1_14 0
x_1_15 0
s_1_15 7.6190817635506392e-01
z_1_15 1
x_1_16 7.3903824329376221e+01
s_1_16 0
z_1_16 0
x_1_17 0
s_1_17 1.0143334195017815e+00
z_1_17 1
x_1_18 7.3094399452209473e+01
s_1_18 0
z_1_18 0
x_1_19 0
s_1_19 7.0935604441910982e-01
z_1_19 1
x_1_20 7.4181643724441528e+01
s_1_20 0
z_1_20 0
x_1_21 7.4146585226058960e+01
s_1_21 0
z_1_21 0
x_1_22 7.3954078912734985e+01
s_1_22 0
z_1_22 0
x_1_23 72.8693745136261
s_1_23 0
z_1_23 0
x_1_24 74.0310378074646
s_1_24 0
z_1_24 0
x_1_25 0
s_1_25 5.3096078149974346e-01
z_1_25 1
x_1_26 7.3644510269165039e+01
s_1_26 0
z_1_26 0
x_1_27 0
s_1_27 2.8682313300669193e-01
z_1_27 1
x_1_28 0
s_1_28 0.790800700429827
z_1_28 1
x_1_29 7.3980104684829712e+01
s_1_29 0
z_1_29 0
x_1_30 7.3036781549453735e+01
s_1_30 0
z_1_30 0
x_1_31 0
s_1_31 5.6326217344030738e-01
z_1_31 1
x_1_32 7.2649650335311890e+01
s_1_32 0
z_1_32 0
x_1_33 0
s_1_33 4.9440067482646555e-01
z_1_33 1
x_1_34 7.3354347467422485e+01
s_1_34 0
z_1_34 0
x_1_35 0
s_1_35 7.0277483353856951e-01
z_1_35 1
x_1_36 73.8980085849762
s_1_36 0
z_1_36 0
x_1_37 7.3242110490798950e+01
s_1_37 0
z_1_37 0
x_1_38 73.7501585483551
s_1_38 0
z_1_38 0
x_1_39 0
s_1_39 3.3716541808098555e-01
z_1_39 1
x_1_40 73.3746600151062
s_1_40 0
z_1_40 0
x_1_41 73.2829213142395
s_1_41 0
z_1_41 0
x_1_42 73.3345377445221
s_1_42 0
z_1_42 0
x_1_43 7.3215632200241089e+01
s_1_43 0
z_1_43 0
x_1_44 72.9271628856659
s_1_44 0
z_1_44 0
x_1_45 0
s_1_45 4.4866277981782332e-01
z_1_45 1
x_1_46 0
s_1_46 9.3347021751105785e-01
z_1_46 1
x_1_47 7.3714152574539185e+01
s_1_47 0
z_1_47 0
x_1_48 0
s_1_48 9.0835824422538280e-01
z_1_48 1
x_1_49 7.3026100635528564e+01
s_1_49 0
z_1_49 0
x_1_50 0
s_1_50 5.7584775157738477e-01
z_1_50 1
x_1_51 0
s_1_51 6.2045977951493114e-01
z_1_51 1
x_1_52 7.3640424489974976e+01
s_1_52 0
z_1_52 0
x_1_53 73.4469244480133
s_1_53 0
z_1_53 0
x_1_54 7.1938881397247314e+01
s_1_54 0
z_1_54 0
x_1_55 7.2635931015014648e+01
s_1_55 0
z_1_55 0
x_1_56 7.3205217838287354e+01
s_1_56 0
z_1_56 0
x_1_57 7.3910969495773315e+01
s_1_57 0
z_1_57 0
x_1_58 7.2253592252731323e+01
s_1_58 0
z_1_58 0
x_1_59 0
s_1_59 3.4508490841835737e-01
z_1_59 1
x_1_60 7.3488583087921143e+01
s_1_60 0
z_1_60 0
x_1_61 7.3951958417892456e+01
s_1_61 0
z_1_61 0
x_1_62 0
s_1_62 9.7631354443728924e-01
z_1_62 1
x_1_63 7.3805419683456421e+01
s_1_63 0
z_1_63 0
x_1_64 7.2931204319000244e+01
s_1_64 0
z_1_64 0
x_1_65 7.3910027027130127e+01
s_1_65 0
z_1_65 0
x_1_66 7.3543929815292358e+01
s_1_66 0
z_1_66 0
x_1_67 7.3765532732009888e+01
s_1_67 0
z_1_67 0
x_1_68 7.3583340644836426e+01
s_1_68 0
z_1_68 0
x_1_69 0
s_1_69 4.1050392854958773e-01
z_1_69 1
x_1_70 0
s_1_70 8.2885696832090616e-01
z_1_70 1
x_1_71 0
s_1_71 7.8951982688158751e-01
z_1_71 1
x_1_72 7.4144463777542114e+01
s_1_72 0
z_1_72 0
x_1_73 7.4436151027679443e+01
s_1_73 0
z_1_73 0
x_1_74 7.4301470518112183e+01
s_1_74 0
z_1_74 0
x_1_75 7.3352536439895630e+01
s_1_75 0
z_1_75 0
x_1_76 7.3585416316986084e+01
s_1_76 0
z_1_76 0
x_1_77 7.3982518196105957e+01
s_1_77 0
z_1_77 0
x_1_78 7.3697026968002319e+01
s_1_78 0
z_1_78 0
x_1_79 7.3932777166366577e+01
s_1_79 0
z_1_79 0
x_1_80 7.3419905424118042e+01
s_1_80 0
z_1_80 0
x_1_81 7.3266640186309814e+01
s_1_81 0
z_1_81 0
x_1_82 7.3250620365142822e+01
s_1_82 0
z_1_82 0
x_1_83 7.3885845184326172e+01
s_1_83 0
z_1_83 0
x_1_84 0
s_1_84 4.6747538831550628e-01
z_1_84 1
x_1_85 7.3906545877456665e+01
s_1_85 0
z_1_85 0
x_1_86 7.3191609621047974e+01
s_1_86 0
z_1_86 0
x_1_87 7.3600239515304565e+01
s_1_87 0
z_1_87 0
x_1_88 7.3414887666702271e+01
s_1_88 0
z_1_88 0
x_1_89 7.4233718395233154e+01
s_1_89 0
z_1_89 0
x_1_90 7.4003337144851685e+01
s_1_90 0
z_1_90 0
x_1_91 0
s_1_91 9.1466611274518073e-01
z_1_91 1
x_1_92 7.4121655702590942e+01
s_1_92 0
z_1_92 0
x_1_93 0
s_1_93 5.3859028924489394e-01
z_1_93 1
x_1_94 7.2819845199584961e+01
s_1_94 0
z_1_94 0
x_1_95 0
s_1_95 4.7846721764653921e-01
z_1_95 1
x_1_96 73.5440034866333
s_1_96 0
z_1_96 0
x_1_97 74.0900149345398
s_1_97 0
z_1_97 0
x_1_98 7.3157878637313843e+01
s_1_98 0
z_1_98 0
x_1_99 7.4249695539474487e+01
s_1_99 0
z_1_99 0
x_1_100 0
s_1_100 7.8295016428455710e-01
z_1_100 1
x_1_101 7.3306751012802124e+01
s_1_101 0
z_1_101 0
x_1_102 7.3669585227966309e+01
s_1_102 0
z_1_102 0
x_1_103 7.3187062501907349e+01
s_1_103 0
z_1_103 0
x_1_104 7.3304096460342407e+01
s_1_104 0
z_1_104 0
x_1_105 0
s_1_105 8.4817200060933828e-01
z_1_105 1
x_1_106 7.4111770868301392e+01
s_1_106 0
z_1_106 0
x_1_107 72.1769471168518
s_1_107 0
z_1_107 0
x_1_108 0
s_1_108 9.4188710954040289e-01
z_1_108 1
x_1_109 0
s_1_109 3.9204846974462271e-01
z_1_109 1
x_1_110 0
s_1_110 9.4492089003324509e-01
z_1_110 1
x_1_111 7.3322111368179321e+01
s_1_111 0
z_1_111 0
x_1_112 7.3891359567642212e+01
s_1_112 0
z_1_112 0
x_1_113 7.3431247711181641e+01
s_1_113 0
z_1_113 0
x_1_114 7.4071922540664673e+01
s_1_114 0
z_1_114 0
x_1_115 73.9181137084961
s_1_115 0
z_1_115 0
x_1_116 0
s_1_116 6.3131600152701139e-01
z_1_116 1
x_1_117 7.3170506477355957e+01
s_1_117 0
z_1_117 0
x_1_118 0
s_1_118 4.8584631830453873e-01
z_1_118 1
x_1_119 7.3941722631454468e+01
s_1_119 0
z_1_119 0
x_1_120 7.3298304796218872e+01
s_1_120 0
z_1_120 0
x_1_121 7.3814924478530884e+01
s_1_121 0
z_1_121 0
x_1_122 7.3305284261703491e+01
s_1_122 0
z_1_122 0
x_1_123 7.3736437559127808e+01
s_1_123 0
z_1_123 0
x_1_124 0
s_1_124 8.0661168880760670e-01
z_1_124 1
x_1_125 73.9142119884491
s_1_125 0
z_1_125 0
x_1_126 1.7857838422060013e-02
s_1_126 0
z_1_126 9.9999982142161581e-01
x_1_127 73.7555558681488
s_1_127 0
z_1_127 0
x_1_128 7.3569957256317139e+01
s_1_128 0
z_1_128 0
x_1_129 7.3658844709396362e+01
s_1_129 0
z_1_129 0
x_1_130 0
s_1_130 1.7330586814205162e-01
z_1_130 1
x_1_131 7.3696111679077148e+01
s_1_131 0
z_1_131 0
x_1_132 73.4808247089386
s_1_132 0
z_1_132 0
x_1_133 73.57088971138
s_1_133 0
z_1_133 0
x_1_134 0
s_1_134 8.2009050808846951e-01
z_1_134 1
x_1_135 73.7179684638977
s_1_135 0
z_1_135 0
x_1_136 7.3437449693679810e+01
s_1_136 0
z_1_136 0
x_1_137 7.3689279079437256e+01
s_1_137 0
z_1_137 0
x_1_138 0
s_1_138 0.925622362876311
z_1_138 1
x_1_139 7.3846937417984009e+01
s_1_139 0
z_1_139 0
x_1_140 0
s_1_140 0.581071627791971
z_1_140 1
x_1_141 0
s_1_141 8.8991935376543552e-01
z_1_141 1
x_1_142 0
s_1_142 4.4727253436576575e-01
z_1_142 1
x_1_143 72.8144941329956
s_1_143 0
z_1_143 0
x_1_144 7.3395760297775269e+01
s_1_144 0
z_1_144 0
x_1_145 7.4022580385208130e+01
s_1_145 0
z_1_145 0
x_1_146 0
s_1_146 7.3581321910023689e-01
z_1_146 1
x_1_147 7.3305207252502441e+01
s_1_147 0
z_1_147 0
x_1_148 0
s_1_148 3.3556163054890931e-01
z_1_148 1
x_1_149 0
s_1_149 7.4048283929005265e-01
z_1_149 1
x_1_150 7.4246573925018311e+01
s_1_150 0
z_1_150 0
x_1_151 7.3913470268249512e+01
s_1_151 0
z_1_151 0
x_1_152 7.1796431779861450e+01
s_1_152 0
z_1_152 0
x_1_153 7.3943453311920166e+01
s_1_153 0
z_1_153 0
x_1_154 0
s_1_154 5.1883732713758945e-01
z_1_154 1
x_1_155 7.4088725805282593e+01
s_1_155 0
z_1_155 0
x_1_156 7.3461157560348511e+01
s_1_156 0
z_1_156 0
x_1_157 7.3435635089874268e+01
s_1_157 0
z_1_157 0
x_1_158 0
s_1_158 4.6362219005823135e-01
z_1_158 1
x_1_159 0
s_1_159 3.6582645913586020e-01
z_1_159 1
x_2_0 5.1707721651333442e+04
